pair_coeff   1*46    1*46      soft    15.0000      10.0000
pair_coeff   47*92   47*92     soft    15.0000      10.0000
pair_coeff   1*46    47*92     soft    15.0000      10.0000

pair_coeff   1*46    93*100     soft    15.0000      12.5000
pair_coeff   47*92   93*100     soft    15.0000      12.5000

pair_coeff   93*100  93*100     soft    15.0000      12.5000


bond_coeff     1     3.634800   9.4927
bond_coeff     2     1.554650  12.3598
bond_coeff     3     5.570300   4.5150
bond_coeff     4     0.827350  12.3763
bond_coeff     5     0.008000  19.9330
bond_coeff     6     0.005150  27.1059
bond_coeff     7     0.004200  23.0013
bond_coeff     8     0.004800  12.0838
bond_coeff     9     0.508950  12.5935
bond_coeff    10     0.024550  22.1038
bond_coeff    11     0.013600  28.6674
bond_coeff    12     0.053500  25.3875
bond_coeff    13     0.038350  26.7692
bond_coeff    14     0.006550  28.1438
bond_coeff    15     0.000950  28.2105
bond_coeff    16     0.001600  29.8117
bond_coeff    17     0.003950  27.3827
bond_coeff    18     0.001600  24.2437
bond_coeff    19     0.003550  19.5248
bond_coeff    20     0.021500  18.7300
bond_coeff    21     0.088900  17.4361
bond_coeff    22     0.140800  11.6598
bond_coeff    23     0.004900  10.4828
bond_coeff    24     0.003200  15.1058
bond_coeff    25     0.006100  12.7702
bond_coeff    26     0.176500  16.8222
bond_coeff    27     0.015850  25.8358
bond_coeff    28     0.933000   4.6726
bond_coeff    29     0.828250   8.1997
bond_coeff    30     0.191900  19.1059
bond_coeff    31     0.008850  27.6725
bond_coeff    32     0.003700  20.3849
bond_coeff    33     0.019300  21.8555
bond_coeff    34     0.002550  29.9464
bond_coeff    35     0.001500  24.9571
bond_coeff    36     0.004400  22.9659
bond_coeff    37     0.019950  26.2276
bond_coeff    38     0.017050  24.9909
bond_coeff    39     0.017750  17.0364
bond_coeff    40     0.013750  14.2646
bond_coeff    41     0.006000  17.0096
bond_coeff    42     0.015450  19.1811
bond_coeff    43     0.017600  25.5544
bond_coeff    44     1.723350  10.0403
bond_coeff    45     0.029450  22.9260
bond_coeff    46     0.002600  23.7651
bond_coeff    47     0.028600  24.2648
bond_coeff    48     0.001600  27.8428
bond_coeff    49     0.001300  22.3454
bond_coeff    50     0.008400  21.4505
bond_coeff    51     0.069750  26.5534
bond_coeff    52     0.048050  25.4458
bond_coeff    53     0.069550  16.8053
bond_coeff    54     0.087950  13.8134
bond_coeff    55     0.003100  16.2223
bond_coeff    56     0.007250  19.9093
bond_coeff    57     0.006700  27.5310
bond_coeff    58     2.708600  14.4392
bond_coeff    59     0.024300  22.8062
bond_coeff    60     0.005950  27.0428
bond_coeff    61     0.006400  16.2595
bond_coeff    62     0.471500  14.5936
bond_coeff    63     0.112400  24.0199
bond_coeff    64     0.077050  27.6331
bond_coeff    65     0.043900  28.4041
bond_coeff    66     0.009050  29.4532
bond_coeff    67     0.001050  28.3731
bond_coeff    68     0.001050  29.5406
bond_coeff    69     0.001850  26.6738
bond_coeff    70     0.002400  23.1952
bond_coeff    71     0.007750  19.1860
bond_coeff    72     0.060500  19.6713
bond_coeff    73     0.025300  17.3172
bond_coeff    74     0.102650  10.1910
bond_coeff    75     0.011350  10.4666
bond_coeff    76     0.005200  16.0473
bond_coeff    77     0.033700  14.9702
bond_coeff    78     0.156750  20.0118
bond_coeff    79     0.029650  29.2470
bond_coeff    80     4.074000   9.4557
bond_coeff    81     0.455700  18.5769
bond_coeff    82     0.045900  18.2146
bond_coeff    83     0.413950  11.3587
bond_coeff    84     0.072650  11.3151
bond_coeff    85     0.596250  14.2430
bond_coeff    86     0.340150  23.1942
bond_coeff    87     0.028400  25.1623
bond_coeff    88     0.006950  29.7719
bond_coeff    89     0.028200  24.3695
bond_coeff    90     0.029450  21.3337
bond_coeff    91     0.191800  19.9945
bond_coeff    92     0.012000  21.7994
bond_coeff    93     0.004700  26.5847
bond_coeff    94     0.006000  21.5513
bond_coeff    95     0.013900  19.3460
bond_coeff    96     0.026500  23.4451
bond_coeff    97     0.019950  29.2022
bond_coeff    98     4.202400   9.4666
bond_coeff    99     1.742750  12.1714
bond_coeff   100     1.214250  12.3056
bond_coeff   101     1.151700  13.5536
bond_coeff   102     0.823050   9.9373
bond_coeff   103     0.287400  17.2651
bond_coeff   104     0.043700  22.5541
bond_coeff   105     0.061950  26.6296
bond_coeff   106     0.024650  24.5037
bond_coeff   107     0.012650  26.1060
bond_coeff   108     0.037800  27.8913
bond_coeff   109     0.015250  25.2339
bond_coeff   110     0.053450  19.0835
bond_coeff   111     0.249850  18.3300
bond_coeff   112     0.067300  21.7908
bond_coeff   113     0.020200  25.1998
bond_coeff   114     0.685300  23.9029
bond_coeff   115     0.016750  26.5765
bond_coeff   116     2.769300   9.0381
bond_coeff   117     1.038900  16.5916
bond_coeff   118     0.319200  18.5278
bond_coeff   119     0.686450  12.2625
bond_coeff   120     0.323600  13.2190
bond_coeff   121     0.072050  20.6827
bond_coeff   122     0.080300  28.8983
bond_coeff   123     0.031500  28.2114
bond_coeff   124     0.046750  28.6992
bond_coeff   125     0.076750  19.9697
bond_coeff   126     0.796850  13.8581
bond_coeff   127     0.219650  13.7568
bond_coeff   128     0.105400  16.0782
bond_coeff   129     0.265800  23.9905
bond_coeff   130     0.398300  24.0885
bond_coeff   131     0.457550  16.7821
bond_coeff   132     0.011150  21.3941
bond_coeff   133     0.006900  27.5592
bond_coeff   134     4.882350  10.9976
bond_coeff   135     0.607150  17.0048
bond_coeff   136     0.035700  16.3636
bond_coeff   137     0.445900  16.7177
bond_coeff   138     0.319300  19.0056
bond_coeff   139     0.087050  26.6308
bond_coeff   140     0.045100  25.1944
bond_coeff   141     0.026700  26.3708
bond_coeff   142     0.014750  28.6177
bond_coeff   143     0.040700  28.0822
bond_coeff   144     0.013250  29.7710
bond_coeff   145     0.116400  22.6527
bond_coeff   146     0.201300  14.4927
bond_coeff   147     1.642250  10.6706
bond_coeff   148     0.238400  14.1685
bond_coeff   149     0.003750  16.9134
bond_coeff   150     0.018700  22.3751
bond_coeff   151     0.031050  28.7240
bond_coeff   152     0.024700  20.2544
bond_coeff   153     0.092000  12.5280
bond_coeff   154     0.006300  14.6168
bond_coeff   155     0.010400  20.5079
bond_coeff   156     0.072150  25.5663
bond_coeff   157     0.015400  27.0879
bond_coeff   158     0.329950  27.4013
bond_coeff   159     0.266050  29.8053
bond_coeff   160     3.252650  10.2286
bond_coeff   161     0.063700  16.2101
bond_coeff   162     0.101650  20.5677
bond_coeff   163     0.096150  19.1838
bond_coeff   164     0.036900  23.9205
bond_coeff   165     0.024050  27.0569
bond_coeff   166     0.012000  24.8492
bond_coeff   167     0.113050  19.1039
bond_coeff   168     0.371500  19.6159
bond_coeff   169     0.033400  19.0898
bond_coeff   170     0.309200  18.0318
bond_coeff   171     0.009800  20.5273
bond_coeff   172     0.033900  14.2417
bond_coeff   173     0.460750  10.3850
bond_coeff   174     0.053650  15.6805
bond_coeff   175     0.036350  22.8680
bond_coeff   176     0.003200  27.3971
bond_coeff   177     0.109400  29.6769
bond_coeff   178     0.013650  22.1299
bond_coeff   179     0.004050  21.2175
bond_coeff   180     0.010200  25.8787
bond_coeff   181     3.645450  10.7902
bond_coeff   182     0.531700  16.5147
bond_coeff   183     1.350300  14.8687
bond_coeff   184     0.102150  20.3707
bond_coeff   185     0.010150  24.4103
bond_coeff   186     0.002300  26.1869
bond_coeff   187     0.001600  29.1461
bond_coeff   188     0.008650  29.1677
bond_coeff   189     0.003450  28.9566
bond_coeff   190     0.021700  21.9949
bond_coeff   191     1.020250  13.7894
bond_coeff   192     0.053500  11.1817
bond_coeff   193     0.014700  13.4664
bond_coeff   194     0.045250  16.6200
bond_coeff   195     0.019800  21.7895
bond_coeff   196     0.577650  14.5306
bond_coeff   197     1.932900  10.7405
bond_coeff   198     0.202650  16.5419
bond_coeff   199     0.125750  23.9574
bond_coeff   200     0.020850  27.2299
bond_coeff   201     0.004850  26.9511
bond_coeff   202     1.766850  10.2127
bond_coeff   203     0.268900  16.4444
bond_coeff   204     0.054850  26.0669
bond_coeff   205     0.089600  22.0666
bond_coeff   206     0.016450  18.8794
bond_coeff   207     0.008500  23.5217
bond_coeff   208     0.020950  27.3875
bond_coeff   209     0.069500  24.6438
bond_coeff   210     0.229500  17.5573
bond_coeff   211     0.136450  16.1222
bond_coeff   212     0.244550  19.7981
bond_coeff   213     0.011800  25.4352
bond_coeff   214     0.024050  25.6629
bond_coeff   215     0.007250  28.1588
bond_coeff   216     7.926800  11.2405
bond_coeff   217     0.375750  22.3737
bond_coeff   218     0.034500  28.6602
bond_coeff   219     0.049050  22.2548
bond_coeff   220     0.024200  21.3754
bond_coeff   221     0.011400  28.1929
bond_coeff   222     0.106550  26.6902
bond_coeff   223     0.705550  17.4251
bond_coeff   224     1.704750  10.9283
bond_coeff   225     0.642100  12.1743
bond_coeff   226     0.015050  19.0610
bond_coeff   227     0.355600  27.5994
bond_coeff   228     0.038350  20.7876
bond_coeff   229     0.010150  23.6962
bond_coeff   230     0.004300  29.1076
bond_coeff   231     4.580600  11.1584
bond_coeff   232     0.061700  17.4764
bond_coeff   233     0.032650  22.3861
bond_coeff   234     0.009850  26.5706
bond_coeff   235     0.008450  29.4305
bond_coeff   236     0.073950  24.6192
bond_coeff   237     0.243150  12.9602
bond_coeff   238     0.139350  15.0391
bond_coeff   239     0.081000  22.2047
bond_coeff   240     0.023900  24.4002
bond_coeff   241     0.018450  27.2367
bond_coeff   242     0.029050  18.9120
bond_coeff   243     2.195750  10.8093
bond_coeff   244     0.495850   9.8062
bond_coeff   245     0.011650  16.2105
bond_coeff   246     0.005500  24.0539
bond_coeff   247     0.043250  22.0475
bond_coeff   248     0.024150  21.3816
bond_coeff   249     0.003500  25.2882
bond_coeff   250     0.680800   6.5170
bond_coeff   251     0.196250  12.4585
bond_coeff   252     0.014250  16.8394
bond_coeff   253     0.003650  20.5319
bond_coeff   254     0.001050  24.4975
bond_coeff   255     0.286350  17.6527
bond_coeff   256     1.218700   9.2956
bond_coeff   257     0.106200  15.2640
bond_coeff   258     0.083500  20.7520
bond_coeff   259     0.021000  21.3249
bond_coeff   260     0.010900  22.4190
bond_coeff   261     0.011550  16.0741
bond_coeff   262     1.113650  13.6962
bond_coeff   263     0.505400  18.2833
bond_coeff   264     0.013950  25.3408
bond_coeff   265     0.011050  28.5956
bond_coeff   266     0.011700  25.1562
bond_coeff   267     0.002950  26.8069
bond_coeff   268     1.710300   8.0474
bond_coeff   269     0.001500  12.0164
bond_coeff   270     0.001850  15.9452
bond_coeff   271     0.001100  20.4015
bond_coeff   272     0.143250  14.7633
bond_coeff   273     0.103900  11.5688
bond_coeff   274     0.004400  18.2115
bond_coeff   275     0.055950  21.5262
bond_coeff   276     0.028300  20.6410
bond_coeff   277     0.019150  20.2199
bond_coeff   278     0.014850  16.1715
bond_coeff   279     0.197200  17.3692
bond_coeff   280     0.191100  23.6227
bond_coeff   281     0.006150  28.2762
bond_coeff   282     0.003050  28.8060
bond_coeff   283     1.435800   5.7844
bond_coeff   284     0.095500  10.0159
bond_coeff   285     0.001250  15.4413
bond_coeff   286     0.003700  11.0963
bond_coeff   287     0.002600  12.6184
bond_coeff   288     0.001000  17.5549
bond_coeff   289     0.002300  19.3656
bond_coeff   290     0.003450  19.2279
bond_coeff   291     0.007000  19.5168
bond_coeff   292     0.002800  17.6687
bond_coeff   293     0.004400  21.7778
bond_coeff   294     0.017500  29.5446
bond_coeff   295     2.159750   6.2969
bond_coeff   296     0.380600  13.0200
bond_coeff   297     0.008250  11.4878
bond_coeff   298     0.003750  16.1411
bond_coeff   299     0.000450  20.2981
bond_coeff   300     0.000800  20.7299
bond_coeff   301     0.004700  20.2402
bond_coeff   302     0.003700  20.0651
bond_coeff   303     0.015150  19.9467
bond_coeff   304     0.043550  25.2780
bond_coeff   305     2.677500   7.2764
bond_coeff   306     0.008950   8.6681
bond_coeff   307     0.056050  17.5449
bond_coeff   308     0.000750  21.0171
bond_coeff   309     0.001100  18.8359
bond_coeff   310     0.026050  17.2987
bond_coeff   311     0.002400  16.6927
bond_coeff   312     0.011150  18.8147
bond_coeff   313     0.006500  26.1595
bond_coeff   314     0.385400   8.1560
bond_coeff   315     0.002650  19.6805
bond_coeff   316     0.020500  22.4508
bond_coeff   317     0.087450  17.4613
bond_coeff   318     0.007300  14.1933
bond_coeff   319     0.006650  12.8288
bond_coeff   320     0.001400  17.6949
bond_coeff   321     0.001050  26.8015
bond_coeff   322     2.769900  12.0066
bond_coeff   323     0.014400  15.4350
bond_coeff   324     0.403600  11.8509
bond_coeff   325     0.268450   9.3314
bond_coeff   326     0.044600  10.0187
bond_coeff   327     0.163600  11.1984
bond_coeff   328     0.033200  19.5428
bond_coeff   329     0.041050  29.8544
bond_coeff   330     0.027900   7.1368
bond_coeff   331     1.500450  11.5412
bond_coeff   332     0.828450  13.4748
bond_coeff   333     0.494250  16.8645
bond_coeff   334     1.182050  10.2755
bond_coeff   335     3.510650  11.1609
bond_coeff   336     0.131100  19.6691
bond_coeff   337     0.020850  27.9789
bond_coeff   338     0.005600  28.2161
bond_coeff   339     1.255550   9.0370
bond_coeff   340     0.200400  14.6862
bond_coeff   341     0.045700  20.2795
bond_coeff   342     0.368900  14.2284
bond_coeff   343     0.786050  14.5159
bond_coeff   344     0.030450  21.9711
bond_coeff   345     0.014250  29.7400
bond_coeff   346     6.140400   7.6347
bond_coeff   347     0.435700  14.4730
bond_coeff   348     0.255750  11.7170
bond_coeff   349     0.100150  17.1855
bond_coeff   350     0.025750  26.9653
bond_coeff   351     4.344550   7.0650
bond_coeff   352     0.531600   7.5683
bond_coeff   353     0.052700  16.6070
bond_coeff   354     0.045600  27.4435
bond_coeff   355     4.332100   8.6167
bond_coeff   356     0.039500  18.5386
bond_coeff   357     0.020200  29.2537
bond_coeff   358     1.237950  10.1383
bond_coeff   359     0.061300  21.0158
bond_coeff   360     0.047500  29.8547
bond_coeff   361     0.030450  29.7083
bond_coeff   362     0.004150  25.8117
bond_coeff   363     0.003550  28.1226
bond_coeff   364     5.998850  10.9475
bond_coeff   365     0.140750  19.8104
bond_coeff   366     0.003250  26.2190
bond_coeff   367     0.025900  20.9212
bond_coeff   368     0.004450  18.4469
bond_coeff   369     0.002750  22.2272
bond_coeff   370     0.089150  29.4275
bond_coeff   371     3.065600   8.8940
bond_coeff   372     0.005150  15.7771
bond_coeff   373     0.100450  21.8626
bond_coeff   374     0.291850  24.6089
bond_coeff   375     0.040050  12.6704
bond_coeff   376     0.009300  13.3996
bond_coeff   377     0.003850  18.6279
bond_coeff   378     0.024850  23.4121
bond_coeff   379     0.031500  26.9624
bond_coeff   380     2.028800   8.0488
bond_coeff   381     0.021000  15.6197
bond_coeff   382     0.006050  27.2036
bond_coeff   383     0.008550  21.4758
bond_coeff   384     0.009750  10.2506
bond_coeff   385     0.014650  14.8750
bond_coeff   386     0.030500  20.0445
bond_coeff   387     0.212000  21.5671
bond_coeff   388     0.047400  22.8307
bond_coeff   389     0.013650  29.9022
bond_coeff   390     0.628000   9.3612
bond_coeff   391     0.016000  19.9890
bond_coeff   392     0.368900  16.2420
bond_coeff   393     0.028100   9.2094
bond_coeff   394     0.215800  16.0269
bond_coeff   395     0.006000  20.6894
bond_coeff   396     0.097600  19.7450
bond_coeff   397     0.117650  18.0133
bond_coeff   398     0.018450  23.5406
bond_coeff   399     0.012250  28.7450
bond_coeff   400     0.017550  28.7588
bond_coeff   401     0.007500  26.4883
bond_coeff   402     0.034550  28.3720
bond_coeff   403     0.022150  27.2738
bond_coeff   404     3.954200  13.7119
bond_coeff   405     4.472700  11.6540
bond_coeff   406     0.998300  10.7683
bond_coeff   407     0.014600  15.7000
bond_coeff   408     0.277800  17.9345
bond_coeff   409     0.848500  13.6417
bond_coeff   410     5.006650   9.2278
bond_coeff   411     0.712000  14.8982
bond_coeff   412     0.060300  20.0029
bond_coeff   413     0.068750  21.1804
bond_coeff   414     0.059300  20.2281
bond_coeff   415     0.091050  21.4167
bond_coeff   416     0.031200  22.1476
bond_coeff   417     0.003100  27.7081
bond_coeff   418     0.019750  26.4801
bond_coeff   419     4.044800  10.0315
bond_coeff   420     0.207550  20.2250
bond_coeff   421     0.272300  24.5051
bond_coeff   422     0.013200  25.9723
bond_coeff   423     0.068600  21.6557
bond_coeff   424     1.308350  13.7956
bond_coeff   425     0.140000   8.5820
bond_coeff   426     0.039450  16.3696
bond_coeff   427     0.028300  22.1577
bond_coeff   428     0.164650  17.7933
bond_coeff   429     0.862750  12.7420
bond_coeff   430     0.150650   9.3879
bond_coeff   431     0.007550  16.0480
bond_coeff   432     0.143050  19.1067
bond_coeff   433     7.870800  12.3918
bond_coeff   434     0.143700  15.6185
bond_coeff   435     0.130800  17.6760
bond_coeff   436     1.202500  16.1735
bond_coeff   437     4.405850  11.6743
bond_coeff   438     2.736050  12.6993
bond_coeff   439     0.069050  16.8035
bond_coeff   440     0.100900  18.2635
bond_coeff   441     1.545300  12.1764
bond_coeff   442     1.891300  12.7641
bond_coeff   443     0.061100  13.8809
bond_coeff   444     0.006600  17.7019
bond_coeff   445     0.068450  15.3747
bond_coeff   446     1.436350   7.3609
bond_coeff   447     0.021100  12.5667
bond_coeff   448     0.457800  14.2846
bond_coeff   449     0.212500  15.2088
bond_coeff   450     0.063650  21.9952
bond_coeff   451     0.024600  24.9404
bond_coeff   452     0.031250  22.7434
bond_coeff   453     0.015200  19.9561
bond_coeff   454     0.036650  24.3343
bond_coeff   455     0.065200  25.9354
bond_coeff   456     0.055750  29.8335
bond_coeff   457     0.023250  25.7473
bond_coeff   458     0.378800   6.5001
bond_coeff   459     0.011200  11.9127
bond_coeff   460     0.010500  16.4364
bond_coeff   461     0.016300  24.1889
bond_coeff   462     0.012450  24.6921
bond_coeff   463     0.029150  19.9871
bond_coeff   464     0.005400  18.4347
bond_coeff   465     0.015350  25.2242
bond_coeff   466     0.009250  29.2872
bond_coeff   467     0.004900  25.6921
bond_coeff   468     0.388050   8.5321
bond_coeff   469     0.016650  15.4441
bond_coeff   470     0.006750  23.5470
bond_coeff   471     0.004300  22.0287
bond_coeff   472     0.004400  15.6098
bond_coeff   473     0.005500  16.4802
bond_coeff   474     0.006850  24.4662
bond_coeff   475     0.028100  25.4756
bond_coeff   476     4.821650   8.5733
bond_coeff   477     0.205150  17.5219
bond_coeff   478     0.101100  16.1656
bond_coeff   479     0.028700  11.4970
bond_coeff   480     0.022600  15.3182
bond_coeff   481     0.024600  21.3799
bond_coeff   482     0.058900  27.7253
bond_coeff   483     0.016450  25.4264
bond_coeff   484     1.997200   9.5410
bond_coeff   485     0.414000  11.4833
bond_coeff   486     0.175550  12.5009
bond_coeff   487     0.223100  13.9130
bond_coeff   488     0.162350  16.0380
bond_coeff   489     0.028750  20.8279
bond_coeff   490     0.002300  24.7754
bond_coeff   491     0.014850  22.3268
bond_coeff   492     5.010700   8.3828
bond_coeff   493     0.305400  15.5122
bond_coeff   494     1.194500  14.3269
bond_coeff   495     0.819350  10.3578
bond_coeff   496     0.284500  13.9726
bond_coeff   497     0.006050  18.1177
bond_coeff   498     0.016300  19.0321
bond_coeff   499     2.372800   9.0895
bond_coeff   500     2.055200  11.3521
bond_coeff   501     1.832750  10.6333
bond_coeff   502     0.010700  19.1572
bond_coeff   503     0.064550  20.4234
bond_coeff   504     0.144650  18.4071
bond_coeff   505     3.439200   9.6850
bond_coeff   506     0.425500  15.6604
bond_coeff   507     0.024900  25.1489
bond_coeff   508     0.002750  25.5450
bond_coeff   509     0.245900  19.8781
bond_coeff   510     4.314950   9.3337
bond_coeff   511     0.043600  18.2653
bond_coeff   512     0.002000  17.7226
bond_coeff   513     0.732100  10.7423
bond_coeff   514     0.404100  10.5661
bond_coeff   515     0.003900  10.1752
bond_coeff   516     0.310050   9.2534
bond_coeff   517     0.438250   7.6327
bond_coeff   518     0.022350  14.2214
bond_coeff   519     0.636000  10.1369

