                units     real      
           atom_style     full      
           pair_style     hybrid soft 25.0 gauss/wall 25.0 
           bond_style     harmonic  
	special_bonds     amber
